NAME: dj38
COMMENT: Gabriela, Higor, Vitor - Twice-Around-the-Tree com 2-Opt
TYPE: TOUR
DIMENSION: 38
TOTAL WEIGHT: 7134
TOUR_SECTION
1
2
4
3
5
6
7
8
9
11
12
16
17
18
19
13
15
20
22
24
28
27
31
36
34
33
38
37
35
32
30
26
25
23
29
21
14
10
EOF
